NAME : 14ft70.7707.tour
COMMENT : Length = 7707
COMMENT : Found by GLKH [Keld Helsgaun] Tue Nov  5 16:51:45 2013
TYPE : TOUR
DIMENSION : 14
TOUR_SECTION
5
24
63
43
42
41
33
28
25
7
21
18
17
16
-1
EOF
